10
1 0 21
2 0 66
2 1 86
3 0 1
3 1 80
3 2 8
4 0 46
4 1 3
4 2 89
4 3 75
5 0 92
5 1 16
5 2 100
5 3 38
5 4 46
6 0 17
6 1 16
6 2 26
6 3 57
6 4 85
6 5 9
7 0 35
7 1 71
7 2 44
7 3 20
7 4 63
7 5 55
7 6 44
8 0 9
8 1 44
8 2 96
8 3 97
8 4 45
8 5 29
8 6 38
8 7 19
9 0 62
9 1 36
9 2 35
9 3 12
9 4 10
9 5 78
9 6 26
9 7 96
9 8 81
